c turning on binary mode checking
c parsing input formula with 202048 variables and 780990 clauses
c finished parsing, read 2116642 bytes from proof file
c detected empty clause; start verification via backward checking
c 3156 of 780990 clauses in core                            
c 1046 of 87425 lemmas in core using 17540 resolution steps
c 0 RAT lemmas in core; 33 redundant literals in core lemmas
s VERIFIED
c verification time: 1.168 seconds
